NAME : gr120Preorder.4444.tour
COMMENT : Length = 4444
COMMENT : Found by LKH [Keld Helsgaun] Thu Apr 23 18:18:02 2020
TYPE : TOUR
DIMENSION : 120
TOUR_SECTION
1
61
16
60
24
111
96
90
54
8
70
116
34
4
26
71
47
55
89
6
84
36
104
35
10
99
62
37
67
83
57
73
114
106
112
110
48
102
101
80
27
5
63
39
77
95
12
97
88
109
64
53
93
21
115
2
82
3
119
103
9
23
11
51
13
49
118
17
98
42
41
56
7
38
72
40
105
74
87
14
75
44
50
46
20
107
113
69
65
68
91
58
100
33
52
79
43
108
25
19
18
85
117
31
66
22
81
94
86
78
45
28
92
32
120
29
30
15
59
76
-1
EOF
